30
1 0 15
3 1 12
3 2 17
5 1 14
5 2 18
5 3 5
5 4 2
6 0 1
6 3 19
6 4 15
6 5 4
7 0 9
7 2 19
7 4 18
8 0 11
8 3 7
8 4 4
8 5 15
8 6 19
8 7 8
9 2 3
9 3 1
9 5 18
9 6 2
10 0 15
10 1 9
10 3 3
10 4 20
10 9 1
11 1 14
11 3 8
11 4 17
11 7 13
11 9 2
12 0 19
12 1 13
12 2 4
12 3 11
12 5 17
12 7 12
12 8 16
12 9 12
13 0 20
13 1 5
13 2 17
13 3 14
13 4 6
13 5 14
13 6 10
13 7 13
13 9 6
13 10 3
13 11 7
14 0 2
14 1 16
14 5 16
14 6 10
14 7 11
14 8 4
14 11 8
14 13 3
15 0 1
15 3 18
15 4 16
15 5 16
15 6 20
15 7 17
15 8 5
15 9 9
15 10 14
15 11 3
15 13 7
15 14 4
16 0 2
16 4 4
16 5 2
16 6 10
16 7 1
16 11 20
16 12 6
16 13 1
17 0 5
17 1 20
17 2 20
17 3 4
17 4 10
17 6 17
17 7 10
17 8 13
17 9 2
17 10 17
17 13 6
17 14 8
17 16 6
18 0 18
18 1 2
18 3 12
18 4 3
18 5 14
18 7 4
18 12 11
18 16 8
19 5 16
19 8 16
19 9 20
19 10 19
19 11 12
19 12 1
19 14 5
20 0 11
20 1 14
20 3 20
20 4 3
20 5 15
20 8 2
20 10 7
20 11 2
20 12 9
20 13 10
20 14 19
20 15 4
20 17 8
20 19 18
21 0 7
21 1 6
21 2 13
21 3 7
21 4 18
21 5 18
21 6 13
21 7 10
21 8 14
21 9 14
21 10 9
21 13 20
21 14 19
21 20 2
22 0 6
22 2 19
22 3 19
22 4 16
22 5 18
22 7 8
22 8 15
22 9 4
22 11 18
22 12 18
22 13 15
22 15 18
22 16 1
22 17 3
22 19 2
22 21 3
23 0 4
23 1 13
23 2 11
23 4 13
23 6 17
23 7 13
23 8 13
23 12 9
23 15 2
23 18 20
23 19 5
24 2 12
24 3 4
24 4 14
24 5 5
24 6 12
24 7 20
24 9 4
24 10 1
24 11 2
24 12 12
24 13 3
24 15 13
24 16 18
24 18 15
24 19 12
24 20 19
24 21 9
24 22 2
25 0 6
25 1 18
25 2 1
25 7 3
25 10 12
25 11 9
25 12 12
25 13 5
25 14 14
25 15 12
25 16 20
25 17 1
25 18 1
25 20 5
25 22 11
25 24 20
26 1 7
26 2 20
26 3 10
26 6 10
26 7 14
26 9 13
26 10 10
26 11 11
26 13 15
26 14 17
26 16 15
26 17 9
26 18 14
26 19 13
26 20 17
26 21 1
26 22 20
26 23 1
26 24 7
27 4 5
27 6 18
27 7 18
27 8 16
27 9 18
27 10 12
27 11 11
27 12 12
27 17 4
27 18 4
27 19 1
27 22 4
27 23 14
27 24 16
28 0 10
28 2 4
28 4 2
28 6 5
28 7 3
28 8 8
28 9 17
28 10 6
28 12 20
28 14 6
28 17 3
28 19 20
28 21 17
28 23 6
28 24 3
28 27 5
29 0 9
29 1 7
29 3 20
29 5 4
29 6 4
29 10 9
29 11 16
29 13 3
29 16 20
29 17 15
29 18 10
29 24 6
29 25 9
29 26 9
29 27 4
29 28 10
